# Node Net
 33   1
4834   1
 40   1
 20   1
1190   1
 64   2
 16   2
 30   2
281   2
2381   2
 67   3
4891   3
561   3
4833   3
4837   3
4843   4
4690   4
 25   4
 37   5
980   5
3641   5
4849   6
4271   6
  2   6
4859   7
 43   7
1050   7
 31   8
4850   8
4885   9
4898   9
4872  10
4130  10
4621  11
4836  11
1120  12
840  12
 39  13
4854  13
 70  14
2801  14
3781  15
4830  15
560  16
4550  16
3291  17
 29  17
2451  18
 24  18
351  19
4842  19
141  20
2871  20
2940  21
2661  21
